(set-logic ALL)
(declare-const BAV1 Bool)
(set-option :produce-models true)
(declare-fun a () (Array Int Int))
(declare-fun b () (Array Int Int))
(assert (not (= a b)))
(assert (= BAV1 (= a b)))
(check-sat)
(get-model)
(get-value (a b))